p tw 130 300
0 1
0 2
0 16
0 17
0 64
0 66
0 75
0 76
0 59
0 77
0 19
0 81
0 87
0 88
0 21
0 65
0 79
0 110
0 121
0 122
0 28
0 105
0 82
0 89
1 2
1 3
1 102
2 46
2 50
3 4
3 5
3 12
3 13
3 32
3 33
3 89
3 90
3 99
3 100
3 87
3 101
3 35
3 109
3 102
3 37
3 47
3 66
3 85
3 39
3 124
4 5
5 20
5 61
6 7
6 8
6 73
6 100
7 8
7 14
7 15
7 26
7 27
7 31
7 32
7 36
7 37
7 58
7 59
7 13
7 62
7 63
7 64
7 69
7 70
7 75
7 78
7 82
7 83
7 97
7 98
7 91
7 118
7 95
7 128
8 10
8 46
9 10
9 11
9 21
9 22
9 54
9 55
9 60
9 61
9 71
9 72
9 57
9 107
9 31
9 42
9 81
9 125
9 116
9 126
9 76
9 117
9 108
9 129
10 11
10 46
12 13
12 20
12 23
13 62
14 15
14 40
14 41
16 17
16 20
16 30
18 19
18 20
18 46
18 53
19 20
19 81
20 30
20 42
20 43
20 49
20 50
20 93
20 94
20 77
20 96
20 54
20 106
20 69
20 74
20 61
20 122
20 124
20 71
20 101
20 23
21 22
21 65
22 67
22 68
23 24
23 25
24 25
24 73
24 120
25 28
25 29
25 34
25 35
25 30
25 41
25 51
25 52
25 84
25 85
25 111
25 112
25 106
25 118
25 53
25 119
25 110
25 123
26 27
27 40
27 109
28 29
28 105
29 68
29 93
30 41
31 32
31 42
32 33
34 35
34 46
34 114
35 109
36 37
36 40
36 108
37 47
38 39
38 40
38 46
38 113
39 40
39 124
40 44
40 45
40 56
40 57
40 41
40 60
40 95
40 108
40 90
40 116
40 109
42 43
43 73
43 86
44 45
44 46
44 65
46 47
46 48
46 53
46 65
46 113
46 114
46 88
46 115
46 112
46 117
46 50
46 98
46 123
47 48
49 50
51 52
52 58
52 73
53 119
54 55
54 106
56 57
56 73
56 74
57 107
58 59
58 73
59 77
60 61
60 95
63 64
64 66
66 85
67 68
68 79
68 80
68 91
68 92
68 102
68 103
68 93
69 70
69 74
71 72
71 101
73 74
73 86
73 104
73 105
73 100
73 120
73 84
73 127
75 76
75 78
76 117
77 96
79 80
79 110
81 125
82 83
82 89
84 85
84 127
87 88
87 101
88 115
89 90
90 116
91 92
91 118
93 94
95 128
97 98
98 123
99 100
102 103
104 105
106 118
108 129
110 123
111 112
112 117
116 126
121 122
122 124
